Geometry = GenFormat {
 <<< "geom_in.gen"
}

Hamiltonian = DFTB {
  SCC = Yes
  charge = 0.0
  #ReadInitialCharges = yes
  SlaterKosterFiles = Type2FileNames {
   Prefix = "/home/hollas/3ob-2-1/"
   Separator = "-"
   Suffix = ".skf"
  }
  MaxAngularMomentum {
    O = "p"
    H = "s"
  }
}

Options {
CalculateForces = Yes
}

ParserOptions {
  ParserVersion = 4
}
