%BLOCK LATTICE_CART
      15.000000000000000       0.000000000000000       0.000000000000000
       0.000000000000000      15.000000000000000       0.000000000000000
       0.000000000000000       0.000000000000000      15.000000000000000
%ENDBLOCK LATTICE_CART

%BLOCK POSITIONS_FRAC
  H   0.5539357927700160   0.4633806272351580  -0.4227725014674575
  H   0.5152555861033493   0.5547535605684913  -0.5878572814674575
  C   0.5117263194366827   0.4885871139018247  -0.4772488281341242
  O   0.5558167461033494   0.5314402272351579  -0.5380050548007909
  O   0.4310205727700160   0.4759852939018248  -0.4784053148007909
%ENDBLOCK POSITIONS_FRAC

%BLOCK SPECIES_POT
       H  H_00PBE_OP.recpot
       C  C_00PBE_OP.recpot
       O  O_00PBE_OP.recpot
%ENDBLOCK SPECIES_POT

SYMMETRY_TOL :     0.001000

kpoint_mp_grid :    1   1   1

%BLOCK SPECIES_LCAO_STATES
       H         1
       C         2
       O         2
%ENDBLOCK SPECIES_LCAO_STATES
