
# This is a sample input for CP2K when using direct _CP2K_ interface
# Notice that we do not need a restart file.
# We are using ASPC extrapolation method (Kolafa et al ) by default
# see: http://manual.cp2k.org/trunk/CP2K_INPUT/FORCE_EVAL/DFT/QS.html#EXTRAPOLATION
&GLOBAL
	PROJECT molecule
	PREFERRED_FFT_LIBRARY FFTW
	FFTW_PLAN_TYPE MEASURE
	RUN_TYPE ENERGY_FORCE
	PRINT_LEVEL LOW
&END GLOBAL

&FORCE_EVAL

    &DFT
        CHARGE 0
        BASIS_SET_FILE_NAME BASIS_MOLOPT
        POTENTIAL_FILE_NAME GTH_POTENTIALS

        &MGRID
            CUTOFF 400
            NGRIDS 5
        &END MGRID

        &QS
            EPS_DEFAULT 1.E-10
        &END QS

        &SCF

            MAX_SCF 20
            EPS_SCF 1.0E-6

            &OT
                MINIMIZER DIIS
                PRECONDITIONER FULL_SINGLE_INVERSE
            &END OT

            &OUTER_SCF
                MAX_SCF 100
                EPS_SCF 1.0E-6
            &END OUTER_SCF

        &END SCF

        &XC
            &XC_FUNCTIONAL PBE
            &END XC_FUNCTIONAL

            &XC_GRID
               XC_SMOOTH_RHO NN10
               XC_DERIV NN10_SMOOTH
            &END XC_GRID


        &END XC

    &END DFT

    &SUBSYS
        &TOPOLOGY
            COORD_FILE_NAME   mini.dat
            COORD_FILE_FORMAT XYZ
        &END TOPOLOGY
        &CELL
            ABC 12.43 12.43 12.43
        &END CELL
        &KIND H
            BASIS_SET DZVP-MOLOPT-GTH
            POTENTIAL GTH-PBE-q1
        &END KIND
        &KIND O
            BASIS_SET DZVP-MOLOPT-GTH
            POTENTIAL GTH-PBE-q6
        &END KIND
        &KIND N
            BASIS_SET DZVP-MOLOPT-GTH
            POTENTIAL GTH-PBE-q5
        &END KIND
    &END SUBSYS

&END FORCE_EVAL

